hr_plot = True
write_xyz = True
translate_home_cell = False

num_bands         =   36       
num_wann          =   36

Begin Atoms_Frac
P   0.5915846800000000  0.9022746900000002  0.4181970499999999
P   0.4084153200000000  0.4022746900000000  0.0818029500000000
P   0.4084153200000000  0.0977253099999998  0.5818029500000002
P   0.5915846800000000  0.5977253099999998  0.9181970500000000
P   0.7279374300000003  0.2669563800000000  0.8028295900000001
P   0.2720625699999996  0.7669563800000001  0.6971704100000000
P   0.2720625699999996  0.7330436199999999  0.1971704099999999
P   0.7279374300000003  0.2330436200000000  0.3028295899999999
Ag   0.8598394300000003  0.5460093000000003  0.6010717200000002
Ag   0.1401605699999997  0.0460093000000001  0.8989282799999998
Ag   0.1401605699999997  0.4539906999999997  0.3989282799999997
Ag   0.8598394300000003  0.9539906999999997  0.1010717200000002
End Atoms_Frac

Begin Projections     
P : pz py px
Ag : pz py px
End Projections   

begin kpoint_path
E  0.500000  0.500000  0.500000     A  0.500000  0.000000  0.500000
A  0.500000  0.000000  0.500000     G  0.000000  0.000000  0.000000
G  0.000000  0.000000  0.000000     B  0.000000  0.000000  0.500000
B  0.000000  0.000000  0.500000     D  0.000000  0.500000  0.500000
D  0.000000  0.500000  0.500000     C  0.500000  0.500000  0.000000
C  0.500000  0.500000  0.000000     Z  0.000000  0.500000  0.000000
Z  0.000000  0.500000  0.000000     G  0.000000  0.000000  0.000000
G  0.000000  0.000000  0.000000     Y  0.500000  0.000000  0.000000
Y  0.500000  0.000000  0.000000     C  0.500000  0.500000  0.000000
C  0.500000  0.500000  0.000000     E  0.500000  0.500000  0.500000
end kpoint_path

Begin Unit_Cell_Cart
6.1365281674978283    0.0000000000000000    0.0000000000000000
0.0000000000000000    5.0146989099999999    0.0000000000000000
-3.1079789745344861    0.0000000000000000    7.0975373947360678
End Unit_Cell_Cart
