POSCAR for generated by WannierTools
1.0
    6.136528    0.000000    0.000000
    0.000000    5.014699    0.000000
   42.399689    0.000000   99.365524
P1    P2    P3    P4    P5    P6    P7    P8    Ag1   Ag2   Ag3   Ag4   
    14    14    14    14    14    14    14    14    14    14    14    14
Direct
    0.091753    0.477463    0.015807       P1
    0.172836    0.212875    0.003092       P2
   -0.091753    0.051714    0.021991       P3
   -0.172836    0.316303    0.034706       P4
   -0.039631    0.141267    0.030346       P5
   -0.224957    0.405856    0.026352       P6
    0.039631    0.387910    0.007453       P7
    0.224957    0.123321    0.011446       P8
    0.136934    0.288936    0.022720      Ag1
   -0.401523    0.024347    0.033978      Ag2
   -0.136934    0.240242    0.015079      Ag3
    0.401523    0.504830    0.003820      Ag4
    0.091753    0.477463    0.087236       P1
    0.172836    0.212875    0.074521       P2
   -0.091753    0.051714    0.093420       P3
   -0.172836    0.316303    0.106135       P4
   -0.039631    0.141267    0.101774       P5
   -0.224957    0.405856    0.097780       P6
    0.039631    0.387910    0.078881       P7
    0.224957    0.123321    0.082875       P8
    0.136934    0.288936    0.094148      Ag1
   -0.401523    0.024347    0.105407      Ag2
   -0.136934    0.240242    0.086507      Ag3
    0.401523    0.504830    0.075249      Ag4
    0.091753    0.477463    0.158664       P1
    0.172836    0.212875    0.145949       P2
   -0.091753    0.051714    0.164848       P3
   -0.172836    0.316303    0.177563       P4
   -0.039631    0.141267    0.173203       P5
   -0.224957    0.405856    0.169209       P6
    0.039631    0.387910    0.150310       P7
    0.224957    0.123321    0.154304       P8
    0.136934    0.288936    0.165577      Ag1
   -0.401523    0.024347    0.176835      Ag2
   -0.136934    0.240242    0.157936      Ag3
    0.401523    0.504830    0.146677      Ag4
    0.091753    0.477463    0.230093       P1
    0.172836    0.212875    0.217378       P2
   -0.091753    0.051714    0.236277       P3
   -0.172836    0.316303    0.248992       P4
   -0.039631    0.141267    0.244631       P5
   -0.224957    0.405856    0.240638       P6
    0.039631    0.387910    0.221738       P7
    0.224957    0.123321    0.225732       P8
    0.136934    0.288936    0.237005      Ag1
   -0.401523    0.024347    0.248264      Ag2
   -0.136934    0.240242    0.229365      Ag3
    0.401523    0.504830    0.218106      Ag4
    0.091753    0.477463    0.301521       P1
    0.172836    0.212875    0.288806       P2
   -0.091753    0.051714    0.307705       P3
   -0.172836    0.316303    0.320421       P4
   -0.039631    0.141267    0.316060       P5
   -0.224957    0.405856    0.312066       P6
    0.039631    0.387910    0.293167       P7
    0.224957    0.123321    0.297161       P8
    0.136934    0.288936    0.308434      Ag1
   -0.401523    0.024347    0.319692      Ag2
   -0.136934    0.240242    0.300793      Ag3
    0.401523    0.504830    0.289535      Ag4
    0.091753    0.477463    0.372950       P1
    0.172836    0.212875    0.360235       P2
   -0.091753    0.051714    0.379134       P3
   -0.172836    0.316303    0.391849       P4
   -0.039631    0.141267    0.387489       P5
   -0.224957    0.405856    0.383495       P6
    0.039631    0.387910    0.364596       P7
    0.224957    0.123321    0.368589       P8
    0.136934    0.288936    0.379862      Ag1
   -0.401523    0.024347    0.391121      Ag2
   -0.136934    0.240242    0.372222      Ag3
    0.401523    0.504830    0.360963      Ag4
    0.091753    0.477463    0.444379       P1
    0.172836    0.212875    0.431663       P2
   -0.091753    0.051714    0.450563       P3
   -0.172836    0.316303    0.463278       P4
   -0.039631    0.141267    0.458917       P5
   -0.224957    0.405856    0.454923       P6
    0.039631    0.387910    0.436024       P7
    0.224957    0.123321    0.440018       P8
    0.136934    0.288936    0.451291      Ag1
   -0.401523    0.024347    0.462549      Ag2
   -0.136934    0.240242    0.443650      Ag3
    0.401523    0.504830    0.432392      Ag4
    0.091753    0.477463    0.515807       P1
    0.172836    0.212875    0.503092       P2
   -0.091753    0.051714    0.521991       P3
   -0.172836    0.316303    0.534706       P4
   -0.039631    0.141267    0.530346       P5
   -0.224957    0.405856    0.526352       P6
    0.039631    0.387910    0.507453       P7
    0.224957    0.123321    0.511446       P8
    0.136934    0.288936    0.522720      Ag1
   -0.401523    0.024347    0.533978      Ag2
   -0.136934    0.240242    0.515079      Ag3
    0.401523    0.504830    0.503820      Ag4
    0.091753    0.477463    0.587236       P1
    0.172836    0.212875    0.574521       P2
   -0.091753    0.051714    0.593420       P3
   -0.172836    0.316303    0.606135       P4
   -0.039631    0.141267    0.601774       P5
   -0.224957    0.405856    0.597780       P6
    0.039631    0.387910    0.578881       P7
    0.224957    0.123321    0.582875       P8
    0.136934    0.288936    0.594148      Ag1
   -0.401523    0.024347    0.605407      Ag2
   -0.136934    0.240242    0.586507      Ag3
    0.401523    0.504830    0.575249      Ag4
    0.091753    0.477463    0.658664       P1
    0.172836    0.212875    0.645949       P2
   -0.091753    0.051714    0.664848       P3
   -0.172836    0.316303    0.677563       P4
   -0.039631    0.141267    0.673203       P5
   -0.224957    0.405856    0.669209       P6
    0.039631    0.387910    0.650310       P7
    0.224957    0.123321    0.654304       P8
    0.136934    0.288936    0.665577      Ag1
   -0.401523    0.024347    0.676835      Ag2
   -0.136934    0.240242    0.657936      Ag3
    0.401523    0.504830    0.646677      Ag4
    0.091753    0.477463    0.730093       P1
    0.172836    0.212875    0.717378       P2
   -0.091753    0.051714    0.736277       P3
   -0.172836    0.316303    0.748992       P4
   -0.039631    0.141267    0.744631       P5
   -0.224957    0.405856    0.740638       P6
    0.039631    0.387910    0.721738       P7
    0.224957    0.123321    0.725732       P8
    0.136934    0.288936    0.737005      Ag1
   -0.401523    0.024347    0.748264      Ag2
   -0.136934    0.240242    0.729365      Ag3
    0.401523    0.504830    0.718106      Ag4
    0.091753    0.477463    0.801521       P1
    0.172836    0.212875    0.788806       P2
   -0.091753    0.051714    0.807705       P3
   -0.172836    0.316303    0.820421       P4
   -0.039631    0.141267    0.816060       P5
   -0.224957    0.405856    0.812066       P6
    0.039631    0.387910    0.793167       P7
    0.224957    0.123321    0.797161       P8
    0.136934    0.288936    0.808434      Ag1
   -0.401523    0.024347    0.819692      Ag2
   -0.136934    0.240242    0.800793      Ag3
    0.401523    0.504830    0.789535      Ag4
    0.091753    0.477463    0.872950       P1
    0.172836    0.212875    0.860235       P2
   -0.091753    0.051714    0.879134       P3
   -0.172836    0.316303    0.891849       P4
   -0.039631    0.141267    0.887489       P5
   -0.224957    0.405856    0.883495       P6
    0.039631    0.387910    0.864596       P7
    0.224957    0.123321    0.868589       P8
    0.136934    0.288936    0.879862      Ag1
   -0.401523    0.024347    0.891121      Ag2
   -0.136934    0.240242    0.872222      Ag3
    0.401523    0.504830    0.860963      Ag4
    0.091753    0.477463    0.944379       P1
    0.172836    0.212875    0.931663       P2
   -0.091753    0.051714    0.950563       P3
   -0.172836    0.316303    0.963278       P4
   -0.039631    0.141267    0.958917       P5
   -0.224957    0.405856    0.954923       P6
    0.039631    0.387910    0.936024       P7
    0.224957    0.123321    0.940018       P8
    0.136934    0.288936    0.951291      Ag1
   -0.401523    0.024347    0.962549      Ag2
   -0.136934    0.240242    0.943650      Ag3
    0.401523    0.504830    0.932392      Ag4
