POSCAR for generated by WannierTools
1.0
    6.136529    0.000000    0.000000
    0.000000    5.014699    0.000000
   42.399692    0.000000   99.365531
P     Ag    
   112    56
Direct
    0.173388    0.902275    0.029871        P
    0.326612    0.402275    0.005843        P
   -0.173388    0.097725    0.041557        P
   -0.326612    0.597725    0.065586        P
   -0.074892    0.266956    0.057345        P
   -0.425108    0.766956    0.049798        P
    0.074892    0.733044    0.014084        P
    0.425108    0.233044    0.021631        P
    0.258768    0.546009    0.042934       Ag
   -0.758768    0.046009    0.064209       Ag
   -0.258768    0.453991    0.028495       Ag
    0.758768    0.953991    0.007219       Ag
    0.173388    0.902275    0.101300        P
    0.326612    0.402275    0.077272        P
   -0.173388    0.097725    0.112986        P
   -0.326612    0.597725    0.137014        P
   -0.074892    0.266956    0.128774        P
   -0.425108    0.766956    0.121226        P
    0.074892    0.733044    0.085512        P
    0.425108    0.233044    0.093059        P
    0.258768    0.546009    0.114362       Ag
   -0.758768    0.046009    0.135638       Ag
   -0.258768    0.453991    0.099923       Ag
    0.758768    0.953991    0.078648       Ag
    0.173388    0.902275    0.172728        P
    0.326612    0.402275    0.148700        P
   -0.173388    0.097725    0.184414        P
   -0.326612    0.597725    0.208443        P
   -0.074892    0.266956    0.200202        P
   -0.425108    0.766956    0.192655        P
    0.074892    0.733044    0.156941        P
    0.425108    0.233044    0.164488        P
    0.258768    0.546009    0.185791       Ag
   -0.758768    0.046009    0.207066       Ag
   -0.258768    0.453991    0.171352       Ag
    0.758768    0.953991    0.150077       Ag
    0.173388    0.902275    0.244157        P
    0.326612    0.402275    0.220129        P
   -0.173388    0.097725    0.255843        P
   -0.326612    0.597725    0.279871        P
   -0.074892    0.266956    0.271631        P
   -0.425108    0.766956    0.264084        P
    0.074892    0.733044    0.228369        P
    0.425108    0.233044    0.235916        P
    0.258768    0.546009    0.257219       Ag
   -0.758768    0.046009    0.278495       Ag
   -0.258768    0.453991    0.242781       Ag
    0.758768    0.953991    0.221505       Ag
    0.173388    0.902275    0.315586        P
    0.326612    0.402275    0.291557        P
   -0.173388    0.097725    0.327272        P
   -0.326612    0.597725    0.351300        P
   -0.074892    0.266956    0.343059        P
   -0.425108    0.766956    0.335512        P
    0.074892    0.733044    0.299798        P
    0.425108    0.233044    0.307345        P
    0.258768    0.546009    0.328648       Ag
   -0.758768    0.046009    0.349923       Ag
   -0.258768    0.453991    0.314209       Ag
    0.758768    0.953991    0.292934       Ag
    0.173388    0.902275    0.387014        P
    0.326612    0.402275    0.362986        P
   -0.173388    0.097725    0.398700        P
   -0.326612    0.597725    0.422728        P
   -0.074892    0.266956    0.414488        P
   -0.425108    0.766956    0.406941        P
    0.074892    0.733044    0.371226        P
    0.425108    0.233044    0.378774        P
    0.258768    0.546009    0.400077       Ag
   -0.758768    0.046009    0.421352       Ag
   -0.258768    0.453991    0.385638       Ag
    0.758768    0.953991    0.364362       Ag
    0.173388    0.902275    0.458443        P
    0.326612    0.402275    0.434414        P
   -0.173388    0.097725    0.470129        P
   -0.326612    0.597725    0.494157        P
   -0.074892    0.266956    0.485916        P
   -0.425108    0.766956    0.478369        P
    0.074892    0.733044    0.442655        P
    0.425108    0.233044    0.450202        P
    0.258768    0.546009    0.471505       Ag
   -0.758768    0.046009    0.492781       Ag
   -0.258768    0.453991    0.457066       Ag
    0.758768    0.953991    0.435791       Ag
    0.173388    0.902275    0.529871        P
    0.326612    0.402275    0.505843        P
   -0.173388    0.097725    0.541557        P
   -0.326612    0.597725    0.565586        P
   -0.074892    0.266956    0.557345        P
   -0.425108    0.766956    0.549798        P
    0.074892    0.733044    0.514084        P
    0.425108    0.233044    0.521631        P
    0.258768    0.546009    0.542934       Ag
   -0.758768    0.046009    0.564209       Ag
   -0.258768    0.453991    0.528495       Ag
    0.758768    0.953991    0.507219       Ag
    0.173388    0.902275    0.601300        P
    0.326612    0.402275    0.577272        P
   -0.173388    0.097725    0.612986        P
   -0.326612    0.597725    0.637014        P
   -0.074892    0.266956    0.628774        P
   -0.425108    0.766956    0.621226        P
    0.074892    0.733044    0.585512        P
    0.425108    0.233044    0.593059        P
    0.258768    0.546009    0.614362       Ag
   -0.758768    0.046009    0.635638       Ag
   -0.258768    0.453991    0.599923       Ag
    0.758768    0.953991    0.578648       Ag
    0.173388    0.902275    0.672728        P
    0.326612    0.402275    0.648700        P
   -0.173388    0.097725    0.684414        P
   -0.326612    0.597725    0.708443        P
   -0.074892    0.266956    0.700202        P
   -0.425108    0.766956    0.692655        P
    0.074892    0.733044    0.656941        P
    0.425108    0.233044    0.664488        P
    0.258768    0.546009    0.685791       Ag
   -0.758768    0.046009    0.707066       Ag
   -0.258768    0.453991    0.671352       Ag
    0.758768    0.953991    0.650077       Ag
    0.173388    0.902275    0.744157        P
    0.326612    0.402275    0.720129        P
   -0.173388    0.097725    0.755843        P
   -0.326612    0.597725    0.779871        P
   -0.074892    0.266956    0.771631        P
   -0.425108    0.766956    0.764084        P
    0.074892    0.733044    0.728369        P
    0.425108    0.233044    0.735916        P
    0.258768    0.546009    0.757219       Ag
   -0.758768    0.046009    0.778495       Ag
   -0.258768    0.453991    0.742781       Ag
    0.758768    0.953991    0.721505       Ag
    0.173388    0.902275    0.815586        P
    0.326612    0.402275    0.791557        P
   -0.173388    0.097725    0.827272        P
   -0.326612    0.597725    0.851300        P
   -0.074892    0.266956    0.843059        P
   -0.425108    0.766956    0.835512        P
    0.074892    0.733044    0.799798        P
    0.425108    0.233044    0.807345        P
    0.258768    0.546009    0.828648       Ag
   -0.758768    0.046009    0.849923       Ag
   -0.258768    0.453991    0.814209       Ag
    0.758768    0.953991    0.792934       Ag
    0.173388    0.902275    0.887014        P
    0.326612    0.402275    0.862986        P
   -0.173388    0.097725    0.898700        P
   -0.326612    0.597725    0.922728        P
   -0.074892    0.266956    0.914488        P
   -0.425108    0.766956    0.906941        P
    0.074892    0.733044    0.871226        P
    0.425108    0.233044    0.878774        P
    0.258768    0.546009    0.900077       Ag
   -0.758768    0.046009    0.921352       Ag
   -0.258768    0.453991    0.885638       Ag
    0.758768    0.953991    0.864362       Ag
    0.173388    0.902275    0.958443        P
    0.326612    0.402275    0.934414        P
   -0.173388    0.097725    0.970129        P
   -0.326612    0.597725    0.994157        P
   -0.074892    0.266956    0.985916        P
   -0.425108    0.766956    0.978369        P
    0.074892    0.733044    0.942655        P
    0.425108    0.233044    0.950202        P
    0.258768    0.546009    0.971505       Ag
   -0.758768    0.046009    0.992781       Ag
   -0.258768    0.453991    0.957066       Ag
    0.758768    0.953991    0.935791       Ag
