POSCAR for slab defined by SURFACE card and Nslab and Vacuum_thickness_in_Angstrom in wt.in by WannierTools
1.0
    6.136528    0.000000    0.000000
    0.000000    5.014699    0.000000
   46.915732    0.000000  109.949068
P1    P2    P3    P4    P5    P6    P7    P8    Ag1   Ag2   Ag3   Ag4   
    14    14    14    14    14    14    14    14    14    14    14    14
Cartesian
    4.896867    2.394334   10.156505       P1
    7.925416    2.394334   17.254042       P1
   10.953966    2.394334   24.351580       P1
   13.982515    2.394334   31.449117       P1
   17.011064    2.394334   38.546655       P1
   20.039613    2.394334   45.644192       P1
   23.068162    2.394334   52.741729       P1
   26.096712    2.394334   59.839267       P1
   29.125261    2.394334   66.936804       P1
   32.153810    2.394334   74.034342       P1
   35.182359    2.394334   81.131879       P1
   38.210908    2.394334   88.229416       P1
   41.239457    2.394334   95.326954       P1
   44.268007    2.394334  102.424491       P1
    4.855317    1.067502    8.893057       P2
    7.883866    1.067502   15.990595       P2
   10.912416    1.067502   23.088132       P2
   13.940965    1.067502   30.185670       P2
   16.969514    1.067502   37.283207       P2
   19.998063    1.067502   44.380744       P2
   23.026612    1.067502   51.478282       P2
   26.055161    1.067502   58.575819       P2
   29.083711    1.067502   65.673357       P2
   32.112260    1.067502   72.770894       P2
   35.140809    1.067502   79.868431       P2
   38.169358    1.067502   86.965969       P2
   41.197907    1.067502   94.063506       P2
   44.226457    1.067502  101.161044       P2
   10.169509    0.259330   10.770985       P3
   13.198059    0.259330   17.868522       P3
   16.226608    0.259330   24.966060       P3
   19.255157    0.259330   32.063597       P3
   22.283706    0.259330   39.161135       P3
   25.312255    0.259330   46.258672       P3
   28.340805    0.259330   53.356209       P3
   31.369354    0.259330   60.453747       P3
   34.397903    0.259330   67.551284       P3
   37.426452    0.259330   74.648822       P3
   40.455001    0.259330   81.746359       P3
   43.483551    0.259330   88.843896       P3
   46.512100    0.259330   95.941434       P3
   49.540649    0.259330  103.038971       P3
   10.211059    1.586162   12.034433       P4
   13.239609    1.586162   19.131970       P4
   16.268158    1.586162   26.229507       P4
   19.296707    1.586162   33.327045       P4
   22.325256    1.586162   40.424582       P4
   25.353805    1.586162   47.522120       P4
   28.382355    1.586162   54.619657       P4
   31.410904    1.586162   61.717194       P4
   34.439453    1.586162   68.814732       P4
   37.468002    1.586162   75.912269       P4
   40.496551    1.586162   83.009807       P4
   43.525101    1.586162   90.107344       P4
   46.553650    1.586162   97.204881       P4
   49.582199    1.586162  104.302419       P4
   10.843581    0.708413   11.601129       P5
   13.872130    0.708413   18.698667       P5
   16.900679    0.708413   25.796204       P5
   19.929228    0.708413   32.893741       P5
   22.957778    0.708413   39.991279       P5
   25.986327    0.708413   47.088816       P5
   29.014876    0.708413   54.186354       P5
   32.043425    0.708413   61.283891       P5
   35.071974    0.708413   68.381428       P5
   38.100524    0.708413   75.478966       P5
   41.129073    0.708413   82.576503       P5
   44.157622    0.708413   89.674040       P5
   47.186171    0.708413   96.771578       P5
   50.214720    0.708413  103.869115       P5
    9.536988    2.035245   11.204289       P6
   12.565537    2.035245   18.301826       P6
   15.594086    2.035245   25.399363       P6
   18.622636    2.035245   32.496901       P6
   21.651185    2.035245   39.594438       P6
   24.679734    2.035245   46.691976       P6
   27.708283    2.035245   53.789513       P6
   30.736832    2.035245   60.887050       P6
   33.765382    2.035245   67.984588       P6
   36.793931    2.035245   75.082125       P6
   39.822480    2.035245   82.179662       P6
   42.851029    2.035245   89.277200       P6
   45.879578    2.035245   96.374737       P6
   48.908128    2.035245  103.472275       P6
    4.222796    1.945252    9.326361       P7
    7.251345    1.945252   16.423898       P7
   10.279894    1.945252   23.521436       P7
   13.308443    1.945252   30.618973       P7
   16.336993    1.945252   37.716510       P7
   19.365542    1.945252   44.814048       P7
   22.394091    1.945252   51.911585       P7
   25.422640    1.945252   59.009123       P7
   28.451189    1.945252   66.106660       P7
   31.479738    1.945252   73.204197       P7
   34.508288    1.945252   80.301735       P7
   37.536837    1.945252   87.399272       P7
   40.565386    1.945252   94.496810       P7
   43.593935    1.945252  101.594347       P7
    5.529389    0.618420    9.723201       P8
    8.557938    0.618420   16.820739       P8
   11.586487    0.618420   23.918276       P8
   14.615036    0.618420   31.015814       P8
   17.643585    0.618420   38.113351       P8
   20.672135    0.618420   45.210888       P8
   23.700684    0.618420   52.308426       P8
   26.729233    0.618420   59.405963       P8
   29.757782    0.618420   66.503501       P8
   32.786331    0.618420   73.601038       P8
   35.814880    0.618420   80.698575       P8
   38.843430    0.618420   87.796113       P8
   41.871979    0.618420   94.893650       P8
   44.900528    0.618420  101.991188       P8
    5.467205    1.448926   10.843356      Ag1
    8.495754    1.448926   17.940893      Ag1
   11.524303    1.448926   25.038431      Ag1
   14.552853    1.448926   32.135968      Ag1
   17.581402    1.448926   39.233505      Ag1
   20.609951    1.448926   46.331043      Ag1
   23.638500    1.448926   53.428580      Ag1
   26.667049    1.448926   60.526118      Ag1
   29.695599    1.448926   67.623655      Ag1
   32.724148    1.448926   74.721192      Ag1
   35.752697    1.448926   81.818730      Ag1
   38.781246    1.448926   88.916267      Ag1
   41.809795    1.448926   96.013805      Ag1
   44.838344    1.448926  103.111342      Ag1
    8.776836    0.122093   11.962062      Ag2
   11.805385    0.122093   19.059599      Ag2
   14.833934    0.122093   26.157137      Ag2
   17.862483    0.122093   33.254674      Ag2
   20.891032    0.122093   40.352211      Ag2
   23.919582    0.122093   47.449749      Ag2
   26.948131    0.122093   54.547286      Ag2
   29.976680    0.122093   61.644824      Ag2
   33.005229    0.122093   68.742361      Ag2
   36.033778    0.122093   75.839898      Ag2
   39.062328    0.122093   82.937436      Ag2
   42.090877    0.122093   90.034973      Ag2
   45.119426    0.122093   97.132511      Ag2
   48.147975    0.122093  104.230048      Ag2
    9.599172    1.204739   10.084134      Ag3
   12.627721    1.204739   17.181672      Ag3
   15.656270    1.204739   24.279209      Ag3
   18.684819    1.204739   31.376746      Ag3
   21.713368    1.204739   38.474284      Ag3
   24.741918    1.204739   45.571821      Ag3
   27.770467    1.204739   52.669359      Ag3
   30.799016    1.204739   59.766896      Ag3
   33.827565    1.204739   66.864433      Ag3
   36.856114    1.204739   73.961971      Ag3
   39.884664    1.204739   81.059508      Ag3
   42.913213    1.204739   88.157046      Ag3
   45.941762    1.204739   95.254583      Ag3
   48.970311    1.204739  102.352120      Ag3
    6.289541    2.531571    8.965428      Ag4
    9.318090    2.531571   16.062966      Ag4
   12.346639    2.531571   23.160503      Ag4
   15.375188    2.531571   30.258040      Ag4
   18.403738    2.531571   37.355578      Ag4
   21.432287    2.531571   44.453115      Ag4
   24.460836    2.531571   51.550652      Ag4
   27.489385    2.531571   58.648190      Ag4
   30.517934    2.531571   65.745727      Ag4
   33.546484    2.531571   72.843265      Ag4
   36.575033    2.531571   79.940802      Ag4
   39.603582    2.531571   87.038339      Ag4
   42.632131    2.531571   94.135877      Ag4
   45.660680    2.531571  101.233414      Ag4
