POSCAR for generated by WannierTools
1.0
    6.136528    0.000000    0.000000
    0.000000    5.014699    0.000000
    3.028549    0.000000    7.097537
P1    P2    P3    P4    P5    P6    P7    P8    Ag1   Ag2   Ag3   Ag4   
     1     1     1     1     1     1     1     1     1     1     1     1
Direct
    0.173388    0.902275    0.450000       P1
    0.326612    0.402275    0.113606       P2
    0.826612    0.097725    0.613606       P3
    0.673388    0.597725    0.950000       P4
    0.925108    0.266956    0.834633       P5
    0.574892    0.766956    0.728973       P6
    0.074892    0.733044    0.228973       P7
    0.425108    0.233044    0.334632       P8
    0.258768    0.546009    0.632875      Ag1
    0.241232    0.046009    0.930731      Ag2
    0.741232    0.453991    0.430731      Ag3
    0.758768    0.953991    0.132875      Ag4
