POSCAR for generated by WannierTools
1.0
    6.136528    0.000000    0.000000
    0.000000    5.014699    0.000000
   42.399689    0.000000   99.365524
P1    P2    P3    P4    P5    P6    P7    P8    Ag1   Ag2   Ag3   Ag4   
    14    14    14    14    14    14    14    14    14    14    14    14
Direct
    0.173388    0.902275    0.029871       P1
    0.326612    0.402275    0.005843       P2
   -0.173388    0.097725    0.041557       P3
   -0.326612    0.597725    0.065586       P4
   -0.074892    0.266956    0.057345       P5
   -0.425108    0.766956    0.049798       P6
    0.074892    0.733044    0.014084       P7
    0.425108    0.233044    0.021631       P8
    0.258768    0.546009    0.042934      Ag1
   -0.758768    0.046009    0.064209      Ag2
   -0.258768    0.453991    0.028495      Ag3
    0.758768    0.953991    0.007219      Ag4
    0.173388    0.902275    0.101300       P1
    0.326612    0.402275    0.077272       P2
   -0.173388    0.097725    0.112986       P3
   -0.326612    0.597725    0.137014       P4
   -0.074892    0.266956    0.128774       P5
   -0.425108    0.766956    0.121226       P6
    0.074892    0.733044    0.085512       P7
    0.425108    0.233044    0.093059       P8
    0.258768    0.546009    0.114362      Ag1
   -0.758768    0.046009    0.135638      Ag2
   -0.258768    0.453991    0.099923      Ag3
    0.758768    0.953991    0.078648      Ag4
    0.173388    0.902275    0.172728       P1
    0.326612    0.402275    0.148700       P2
   -0.173388    0.097725    0.184414       P3
   -0.326612    0.597725    0.208443       P4
   -0.074892    0.266956    0.200202       P5
   -0.425108    0.766956    0.192655       P6
    0.074892    0.733044    0.156941       P7
    0.425108    0.233044    0.164488       P8
    0.258768    0.546009    0.185791      Ag1
   -0.758768    0.046009    0.207066      Ag2
   -0.258768    0.453991    0.171352      Ag3
    0.758768    0.953991    0.150077      Ag4
    0.173388    0.902275    0.244157       P1
    0.326612    0.402275    0.220129       P2
   -0.173388    0.097725    0.255843       P3
   -0.326612    0.597725    0.279871       P4
   -0.074892    0.266956    0.271631       P5
   -0.425108    0.766956    0.264084       P6
    0.074892    0.733044    0.228369       P7
    0.425108    0.233044    0.235916       P8
    0.258768    0.546009    0.257219      Ag1
   -0.758768    0.046009    0.278495      Ag2
   -0.258768    0.453991    0.242781      Ag3
    0.758768    0.953991    0.221505      Ag4
    0.173388    0.902275    0.315586       P1
    0.326612    0.402275    0.291557       P2
   -0.173388    0.097725    0.327272       P3
   -0.326612    0.597725    0.351300       P4
   -0.074892    0.266956    0.343059       P5
   -0.425108    0.766956    0.335512       P6
    0.074892    0.733044    0.299798       P7
    0.425108    0.233044    0.307345       P8
    0.258768    0.546009    0.328648      Ag1
   -0.758768    0.046009    0.349923      Ag2
   -0.258768    0.453991    0.314209      Ag3
    0.758768    0.953991    0.292934      Ag4
    0.173388    0.902275    0.387014       P1
    0.326612    0.402275    0.362986       P2
   -0.173388    0.097725    0.398700       P3
   -0.326612    0.597725    0.422728       P4
   -0.074892    0.266956    0.414488       P5
   -0.425108    0.766956    0.406941       P6
    0.074892    0.733044    0.371226       P7
    0.425108    0.233044    0.378774       P8
    0.258768    0.546009    0.400077      Ag1
   -0.758768    0.046009    0.421352      Ag2
   -0.258768    0.453991    0.385638      Ag3
    0.758768    0.953991    0.364362      Ag4
    0.173388    0.902275    0.458443       P1
    0.326612    0.402275    0.434414       P2
   -0.173388    0.097725    0.470129       P3
   -0.326612    0.597725    0.494157       P4
   -0.074892    0.266956    0.485916       P5
   -0.425108    0.766956    0.478369       P6
    0.074892    0.733044    0.442655       P7
    0.425108    0.233044    0.450202       P8
    0.258768    0.546009    0.471505      Ag1
   -0.758768    0.046009    0.492781      Ag2
   -0.258768    0.453991    0.457066      Ag3
    0.758768    0.953991    0.435791      Ag4
    0.173388    0.902275    0.529871       P1
    0.326612    0.402275    0.505843       P2
   -0.173388    0.097725    0.541557       P3
   -0.326612    0.597725    0.565586       P4
   -0.074892    0.266956    0.557345       P5
   -0.425108    0.766956    0.549798       P6
    0.074892    0.733044    0.514084       P7
    0.425108    0.233044    0.521631       P8
    0.258768    0.546009    0.542934      Ag1
   -0.758768    0.046009    0.564209      Ag2
   -0.258768    0.453991    0.528495      Ag3
    0.758768    0.953991    0.507219      Ag4
    0.173388    0.902275    0.601300       P1
    0.326612    0.402275    0.577272       P2
   -0.173388    0.097725    0.612986       P3
   -0.326612    0.597725    0.637014       P4
   -0.074892    0.266956    0.628774       P5
   -0.425108    0.766956    0.621226       P6
    0.074892    0.733044    0.585512       P7
    0.425108    0.233044    0.593059       P8
    0.258768    0.546009    0.614362      Ag1
   -0.758768    0.046009    0.635638      Ag2
   -0.258768    0.453991    0.599923      Ag3
    0.758768    0.953991    0.578648      Ag4
    0.173388    0.902275    0.672728       P1
    0.326612    0.402275    0.648700       P2
   -0.173388    0.097725    0.684414       P3
   -0.326612    0.597725    0.708443       P4
   -0.074892    0.266956    0.700202       P5
   -0.425108    0.766956    0.692655       P6
    0.074892    0.733044    0.656941       P7
    0.425108    0.233044    0.664488       P8
    0.258768    0.546009    0.685791      Ag1
   -0.758768    0.046009    0.707066      Ag2
   -0.258768    0.453991    0.671352      Ag3
    0.758768    0.953991    0.650077      Ag4
    0.173388    0.902275    0.744157       P1
    0.326612    0.402275    0.720129       P2
   -0.173388    0.097725    0.755843       P3
   -0.326612    0.597725    0.779871       P4
   -0.074892    0.266956    0.771631       P5
   -0.425108    0.766956    0.764084       P6
    0.074892    0.733044    0.728369       P7
    0.425108    0.233044    0.735916       P8
    0.258768    0.546009    0.757219      Ag1
   -0.758768    0.046009    0.778495      Ag2
   -0.258768    0.453991    0.742781      Ag3
    0.758768    0.953991    0.721505      Ag4
    0.173388    0.902275    0.815586       P1
    0.326612    0.402275    0.791557       P2
   -0.173388    0.097725    0.827272       P3
   -0.326612    0.597725    0.851300       P4
   -0.074892    0.266956    0.843059       P5
   -0.425108    0.766956    0.835512       P6
    0.074892    0.733044    0.799798       P7
    0.425108    0.233044    0.807345       P8
    0.258768    0.546009    0.828648      Ag1
   -0.758768    0.046009    0.849923      Ag2
   -0.258768    0.453991    0.814209      Ag3
    0.758768    0.953991    0.792934      Ag4
    0.173388    0.902275    0.887014       P1
    0.326612    0.402275    0.862986       P2
   -0.173388    0.097725    0.898700       P3
   -0.326612    0.597725    0.922728       P4
   -0.074892    0.266956    0.914488       P5
   -0.425108    0.766956    0.906941       P6
    0.074892    0.733044    0.871226       P7
    0.425108    0.233044    0.878774       P8
    0.258768    0.546009    0.900077      Ag1
   -0.758768    0.046009    0.921352      Ag2
   -0.258768    0.453991    0.885638      Ag3
    0.758768    0.953991    0.864362      Ag4
    0.173388    0.902275    0.958443       P1
    0.326612    0.402275    0.934414       P2
   -0.173388    0.097725    0.970129       P3
   -0.326612    0.597725    0.994157       P4
   -0.074892    0.266956    0.985916       P5
   -0.425108    0.766956    0.978369       P6
    0.074892    0.733044    0.942655       P7
    0.425108    0.233044    0.950202       P8
    0.258768    0.546009    0.971505      Ag1
   -0.758768    0.046009    0.992781      Ag2
   -0.258768    0.453991    0.957066      Ag3
    0.758768    0.953991    0.935791      Ag4
