POSCAR for slab defined by SURFACE card and Nslab and Vacuum_thickness_in_Angstrom in wt.in by WannierTools
1.0
    6.136528    0.000000    0.000000
    0.000000    5.014699    0.000000
   46.915732    0.000000  109.949068
P1    P2    P3    P4    P5    P6    P7    P8    Ag1   Ag2   Ag3   Ag4   
    14    14    14    14    14    14    14    14    14    14    14    14
Cartesian
    4.684867    4.524636    8.485664       P1
    7.713416    4.524636   15.583201       P1
   10.741965    4.524636   22.680738       P1
   13.770514    4.524636   29.778276       P1
   16.799063    4.524636   36.875813       P1
   19.827613    4.524636   43.973351       P1
   22.856162    4.524636   51.070888       P1
   25.884711    4.524636   58.168425       P1
   28.913260    4.524636   65.265963       P1
   31.941809    4.524636   72.363500       P1
   34.970359    4.524636   79.461038       P1
   37.998908    4.524636   86.558575       P1
   41.027457    4.524636   93.656112       P1
   44.056006    4.524636  100.753650       P1
    4.606349    2.017287    6.098094       P2
    7.634898    2.017287   13.195631       P2
   10.663447    2.017287   20.293169       P2
   13.691996    2.017287   27.390706       P2
   16.720545    2.017287   34.488243       P2
   19.749095    2.017287   41.585781       P2
   22.777644    2.017287   48.683318       P2
   25.806193    2.017287   55.780856       P2
   28.834742    2.017287   62.878393       P2
   31.863291    2.017287   69.975930       P2
   34.891840    2.017287   77.073468       P2
   37.920390    2.017287   84.171005       P2
   40.948939    2.017287   91.268543       P2
   43.977488    2.017287   98.366080       P2
    9.188887    0.490063    9.646863       P3
   12.217436    0.490063   16.744400       P3
   15.245985    0.490063   23.841938       P3
   18.274535    0.490063   30.939475       P3
   21.303084    0.490063   38.037012       P3
   24.331633    0.490063   45.134550       P3
   27.360182    0.490063   52.232087       P3
   30.388731    0.490063   59.329625       P3
   33.417281    0.490063   66.427162       P3
   36.445830    0.490063   73.524699       P3
   39.474379    0.490063   80.622237       P3
   42.502928    0.490063   87.719774       P3
   45.531477    0.490063   94.817311       P3
   48.560027    0.490063  101.914849       P3
    9.267405    2.997413   12.034433       P4
   12.295954    2.997413   19.131970       P4
   15.324504    2.997413   26.229507       P4
   18.353053    2.997413   33.327045       P4
   21.381602    2.997413   40.424582       P4
   24.410151    2.997413   47.522120       P4
   27.438700    2.997413   54.619657       P4
   30.467250    2.997413   61.717194       P4
   33.495799    2.997413   68.814732       P4
   36.524348    2.997413   75.912269       P4
   39.552897    2.997413   83.009807       P4
   42.581446    2.997413   90.107344       P4
   45.609996    2.997413   97.204881       P4
   48.638545    2.997413  104.302419       P4
   10.462697    1.338706   11.215608       P5
   13.491247    1.338706   18.313145       P5
   16.519796    1.338706   25.410683       P5
   19.548345    1.338706   32.508220       P5
   22.576894    1.338706   39.605757       P5
   25.605443    1.338706   46.703295       P5
   28.633993    1.338706   53.800832       P5
   31.662542    1.338706   60.898369       P5
   34.691091    1.338706   67.995907       P5
   37.719640    1.338706   75.093444       P5
   40.748189    1.338706   82.190982       P5
   43.776739    1.338706   89.288519       P5
   46.805288    1.338706   96.386056       P5
   49.833837    1.338706  103.483594       P5
    7.993595    3.846056   10.465688       P6
   11.022144    3.846056   17.563225       P6
   14.050693    3.846056   24.660762       P6
   17.079242    3.846056   31.758300       P6
   20.107792    3.846056   38.855837       P6
   23.136341    3.846056   45.953375       P6
   26.164890    3.846056   53.050912       P6
   29.193439    3.846056   60.148449       P6
   32.221988    3.846056   67.245987       P6
   35.250538    3.846056   74.343524       P6
   38.279087    3.846056   81.441062       P6
   41.307636    3.846056   88.538599       P6
   44.336185    3.846056   95.636136       P6
   47.364734    3.846056  102.733674       P6
    3.411056    3.675993    6.916919       P7
    6.439606    3.675993   14.014456       P7
    9.468155    3.675993   21.111994       P7
   12.496704    3.675993   28.209531       P7
   15.525253    3.675993   35.307068       P7
   18.553802    3.675993   42.404606       P7
   21.582351    3.675993   49.502143       P7
   24.610901    3.675993   56.599680       P7
   27.639450    3.675993   63.697218       P7
   30.667999    3.675993   70.794755       P7
   33.696548    3.675993   77.892293       P7
   36.725097    3.675993   84.989830       P7
   39.753647    3.675993   92.087367       P7
   42.782196    3.675993   99.184905       P7
    5.880159    1.168644    7.666839       P8
    8.908708    1.168644   14.764376       P8
   11.937257    1.168644   21.861914       P8
   14.965806    1.168644   28.959451       P8
   17.994356    1.168644   36.056988       P8
   21.022905    1.168644   43.154526       P8
   24.051454    1.168644   50.252063       P8
   27.080003    1.168644   57.349601       P8
   30.108552    1.168644   64.447138       P8
   33.137102    1.168644   71.544675       P8
   36.165651    1.168644   78.642213       P8
   39.194200    1.168644   85.739750       P8
   42.222749    1.168644   92.837288       P8
   45.251298    1.168644   99.934825       P8
    5.762649    2.738072    9.783624      Ag1
    8.791198    2.738072   16.881161      Ag1
   11.819747    2.738072   23.978698      Ag1
   14.848297    2.738072   31.076236      Ag1
   17.876846    2.738072   38.173773      Ag1
   20.905395    2.738072   45.271311      Ag1
   23.933944    2.738072   52.368848      Ag1
   26.962493    2.738072   59.466385      Ag1
   29.991043    2.738072   66.563923      Ag1
   33.019592    2.738072   73.661460      Ag1
   36.048141    2.738072   80.758998      Ag1
   39.076690    2.738072   87.856535      Ag1
   42.105239    2.738072   94.954072      Ag1
   45.133788    2.738072  102.051610      Ag1
    6.557115    0.230723   11.897672      Ag2
    9.585664    0.230723   18.995209      Ag2
   12.614214    0.230723   26.092747      Ag2
   15.642763    0.230723   33.190284      Ag2
   18.671312    0.230723   40.287821      Ag2
   21.699861    0.230723   47.385359      Ag2
   24.728410    0.230723   54.482896      Ag2
   27.756960    0.230723   61.580434      Ag2
   30.785509    0.230723   68.677971      Ag2
   33.814058    0.230723   75.775508      Ag2
   36.842607    0.230723   82.873046      Ag2
   39.871156    0.230723   89.970583      Ag2
   42.899706    0.230723   97.068121      Ag2
   45.928255    0.230723  104.165658      Ag2
    8.111105    2.276627    8.348903      Ag3
   11.139654    2.276627   15.446440      Ag3
   14.168203    2.276627   22.543978      Ag3
   17.196752    2.276627   29.641515      Ag3
   20.225302    2.276627   36.739052      Ag3
   23.253851    2.276627   43.836590      Ag3
   26.282400    2.276627   50.934127      Ag3
   29.310949    2.276627   58.031665      Ag3
   32.339498    2.276627   65.129202      Ag3
   35.368048    2.276627   72.226739      Ag3
   38.396597    2.276627   79.324277      Ag3
   41.425146    2.276627   86.421814      Ag3
   44.453695    2.276627   93.519352      Ag3
   47.482244    2.276627  100.616889      Ag3
    7.316639    4.783976    6.234855      Ag4
   10.345188    4.783976   13.332392      Ag4
   13.373737    4.783976   20.429929      Ag4
   16.402286    4.783976   27.527467      Ag4
   19.430835    4.783976   34.625004      Ag4
   22.459385    4.783976   41.722542      Ag4
   25.487934    4.783976   48.820079      Ag4
   28.516483    4.783976   55.917616      Ag4
   31.545032    4.783976   63.015154      Ag4
   34.573581    4.783976   70.112691      Ag4
   37.602131    4.783976   77.210229      Ag4
   40.630680    4.783976   84.307766      Ag4
   43.659229    4.783976   91.405303      Ag4
   46.687778    4.783976   98.502841      Ag4
