POSCAR for slab defined by SURFACE card and Nslab and Vacuum_thickness_in_Angstrom in wt.in by WannierTools
1.0
    6.136528    0.000000    0.000000
   -3.107979    0.000000    7.097537
    0.000000  -80.789329    0.000000
P1    P2    P3    P4    P5    P6    P7    P8    Ag1   Ag2   Ag3   Ag4   
    14    14    14    14    14    14    14    14    14    14    14    14
Cartesian
    2.330528   -5.761823    2.968169       P1
    2.330528  -10.776522    2.968169       P1
    2.330528  -15.791221    2.968169       P1
    2.330528  -20.805920    2.968169       P1
    2.330528  -25.820619    2.968169       P1
    2.330528  -30.835318    2.968169       P1
    2.330528  -35.850016    2.968169       P1
    2.330528  -40.864715    2.968169       P1
    2.330528  -45.879414    2.968169       P1
    2.330528  -50.894113    2.968169       P1
    2.330528  -55.908812    2.968169       P1
    2.330528  -60.923511    2.968169       P1
    2.330528  -65.938210    2.968169       P1
    2.330528  -70.952909    2.968169       P1
    2.252010   -8.269172    0.580599       P2
    2.252010  -13.283871    0.580599       P2
    2.252010  -18.298570    0.580599       P2
    2.252010  -23.313269    0.580599       P2
    2.252010  -28.327968    0.580599       P2
    2.252010  -33.342667    0.580599       P2
    2.252010  -38.357366    0.580599       P2
    2.252010  -43.372065    0.580599       P2
    2.252010  -48.386764    0.580599       P2
    2.252010  -53.401463    0.580599       P2
    2.252010  -58.416162    0.580599       P2
    2.252010  -63.430860    0.580599       P2
    2.252010  -68.445559    0.580599       P2
    2.252010  -73.460258    0.580599       P2
    0.698021   -9.796396    4.129368       P3
    0.698021  -14.811095    4.129368       P3
    0.698021  -19.825794    4.129368       P3
    0.698021  -24.840493    4.129368       P3
    0.698021  -29.855191    4.129368       P3
    0.698021  -34.869890    4.129368       P3
    0.698021  -39.884589    4.129368       P3
    0.698021  -44.899288    4.129368       P3
    0.698021  -49.913987    4.129368       P3
    0.698021  -54.928686    4.129368       P3
    0.698021  -59.943385    4.129368       P3
    0.698021  -64.958084    4.129368       P3
    0.698021  -69.972783    4.129368       P3
    0.698021  -74.987482    4.129368       P3
    0.776539   -7.289046    6.516938       P4
    0.776539  -12.303745    6.516938       P4
    0.776539  -17.318444    6.516938       P4
    0.776539  -22.333143    6.516938       P4
    0.776539  -27.347842    6.516938       P4
    0.776539  -32.362541    6.516938       P4
    0.776539  -37.377240    6.516938       P4
    0.776539  -42.391939    6.516938       P4
    0.776539  -47.406638    6.516938       P4
    0.776539  -52.421337    6.516938       P4
    0.776539  -57.436035    6.516938       P4
    0.776539  -62.450734    6.516938       P4
    0.776539  -67.465433    6.516938       P4
    0.776539  -72.480132    6.516938       P4
    1.971831   -8.947753    5.698113       P5
    1.971831  -13.962452    5.698113       P5
    1.971831  -18.977151    5.698113       P5
    1.971831  -23.991850    5.698113       P5
    1.971831  -29.006549    5.698113       P5
    1.971831  -34.021248    5.698113       P5
    1.971831  -39.035946    5.698113       P5
    1.971831  -44.050645    5.698113       P5
    1.971831  -49.065344    5.698113       P5
    1.971831  -54.080043    5.698113       P5
    1.971831  -59.094742    5.698113       P5
    1.971831  -64.109441    5.698113       P5
    1.971831  -69.124140    5.698113       P5
    1.971831  -74.138839    5.698113       P5
   -0.497271   -6.440404    4.948193       P6
   -0.497271  -11.455102    4.948193       P6
   -0.497271  -16.469801    4.948193       P6
   -0.497271  -21.484500    4.948193       P6
   -0.497271  -26.499199    4.948193       P6
   -0.497271  -31.513898    4.948193       P6
   -0.497271  -36.528597    4.948193       P6
   -0.497271  -41.543296    4.948193       P6
   -0.497271  -46.557995    4.948193       P6
   -0.497271  -51.572694    4.948193       P6
   -0.497271  -56.587393    4.948193       P6
   -0.497271  -61.602092    4.948193       P6
   -0.497271  -66.616790    4.948193       P6
   -0.497271  -71.631489    4.948193       P6
    1.056718   -6.610466    1.399424       P7
    1.056718  -11.625165    1.399424       P7
    1.056718  -16.639864    1.399424       P7
    1.056718  -21.654563    1.399424       P7
    1.056718  -26.669261    1.399424       P7
    1.056718  -31.683960    1.399424       P7
    1.056718  -36.698659    1.399424       P7
    1.056718  -41.713358    1.399424       P7
    1.056718  -46.728057    1.399424       P7
    1.056718  -51.742756    1.399424       P7
    1.056718  -56.757455    1.399424       P7
    1.056718  -61.772154    1.399424       P7
    1.056718  -66.786853    1.399424       P7
    1.056718  -71.801552    1.399424       P7
    3.525821   -9.117815    2.149344       P8
    3.525821  -14.132514    2.149344       P8
    3.525821  -19.147213    2.149344       P8
    3.525821  -24.161912    2.149344       P8
    3.525821  -29.176611    2.149344       P8
    3.525821  -34.191310    2.149344       P8
    3.525821  -39.206009    2.149344       P8
    3.525821  -44.220708    2.149344       P8
    3.525821  -49.235407    2.149344       P8
    3.525821  -54.250105    2.149344       P8
    3.525821  -59.264804    2.149344       P8
    3.525821  -64.279503    2.149344       P8
    3.525821  -69.294202    2.149344       P8
    3.525821  -74.308901    2.149344       P8
    3.408311   -7.548387    4.266129      Ag1
    3.408311  -12.563086    4.266129      Ag1
    3.408311  -17.577784    4.266129      Ag1
    3.408311  -22.592483    4.266129      Ag1
    3.408311  -27.607182    4.266129      Ag1
    3.408311  -32.621881    4.266129      Ag1
    3.408311  -37.636580    4.266129      Ag1
    3.408311  -42.651279    4.266129      Ag1
    3.408311  -47.665978    4.266129      Ag1
    3.408311  -52.680677    4.266129      Ag1
    3.408311  -57.695376    4.266129      Ag1
    3.408311  -62.710075    4.266129      Ag1
    3.408311  -67.724774    4.266129      Ag1
    3.408311  -72.739472    4.266129      Ag1
   -1.933751  -10.055736    6.380177      Ag2
   -1.933751  -15.070435    6.380177      Ag2
   -1.933751  -20.085134    6.380177      Ag2
   -1.933751  -25.099833    6.380177      Ag2
   -1.933751  -30.114532    6.380177      Ag2
   -1.933751  -35.129231    6.380177      Ag2
   -1.933751  -40.143930    6.380177      Ag2
   -1.933751  -45.158628    6.380177      Ag2
   -1.933751  -50.173327    6.380177      Ag2
   -1.933751  -55.188026    6.380177      Ag2
   -1.933751  -60.202725    6.380177      Ag2
   -1.933751  -65.217424    6.380177      Ag2
   -1.933751  -70.232123    6.380177      Ag2
   -1.933751  -75.246822    6.380177      Ag2
   -0.379761   -8.009832    2.831408      Ag3
   -0.379761  -13.024531    2.831408      Ag3
   -0.379761  -18.039230    2.831408      Ag3
   -0.379761  -23.053929    2.831408      Ag3
   -0.379761  -28.068628    2.831408      Ag3
   -0.379761  -33.083327    2.831408      Ag3
   -0.379761  -38.098026    2.831408      Ag3
   -0.379761  -43.112725    2.831408      Ag3
   -0.379761  -48.127423    2.831408      Ag3
   -0.379761  -53.142122    2.831408      Ag3
   -0.379761  -58.156821    2.831408      Ag3
   -0.379761  -63.171520    2.831408      Ag3
   -0.379761  -68.186219    2.831408      Ag3
   -0.379761  -73.200918    2.831408      Ag3
    4.962300   -5.502483    0.717360      Ag4
    4.962300  -10.517182    0.717360      Ag4
    4.962300  -15.531881    0.717360      Ag4
    4.962300  -20.546579    0.717360      Ag4
    4.962300  -25.561278    0.717360      Ag4
    4.962300  -30.575977    0.717360      Ag4
    4.962300  -35.590676    0.717360      Ag4
    4.962300  -40.605375    0.717360      Ag4
    4.962300  -45.620074    0.717360      Ag4
    4.962300  -50.634773    0.717360      Ag4
    4.962300  -55.649472    0.717360      Ag4
    4.962300  -60.664171    0.717360      Ag4
    4.962300  -65.678870    0.717360      Ag4
    4.962300  -70.693569    0.717360      Ag4
