POSCAR for generated by WannierTools
1.0
    6.136528    0.000000    0.000000
    0.000000    5.014699    0.000000
   30.285492    0.000000   70.975374
P1    P2    Ag    
    40    40    40
Direct
    0.173388    0.902275    0.041820       P1
    0.326612    0.402275    0.008180       P1
   -0.173388    0.097725    0.058180       P1
   -0.326612    0.597725    0.091820       P1
   -0.074892    0.266956    0.080283       P2
   -0.425108    0.766956    0.069717       P2
    0.074892    0.733044    0.019717       P2
    0.425108    0.233044    0.030283       P2
    0.258768    0.546009    0.060107       Ag
   -0.758768    0.046009    0.089893       Ag
   -0.258768    0.453991    0.039893       Ag
    0.758768    0.953991    0.010107       Ag
    0.173388    0.902275    0.141820       P1
    0.326612    0.402275    0.108180       P1
   -0.173388    0.097725    0.158180       P1
   -0.326612    0.597725    0.191820       P1
   -0.074892    0.266956    0.180283       P2
   -0.425108    0.766956    0.169717       P2
    0.074892    0.733044    0.119717       P2
    0.425108    0.233044    0.130283       P2
    0.258768    0.546009    0.160107       Ag
   -0.758768    0.046009    0.189893       Ag
   -0.258768    0.453991    0.139893       Ag
    0.758768    0.953991    0.110107       Ag
    0.173388    0.902275    0.241820       P1
    0.326612    0.402275    0.208180       P1
   -0.173388    0.097725    0.258180       P1
   -0.326612    0.597725    0.291820       P1
   -0.074892    0.266956    0.280283       P2
   -0.425108    0.766956    0.269717       P2
    0.074892    0.733044    0.219717       P2
    0.425108    0.233044    0.230283       P2
    0.258768    0.546009    0.260107       Ag
   -0.758768    0.046009    0.289893       Ag
   -0.258768    0.453991    0.239893       Ag
    0.758768    0.953991    0.210107       Ag
    0.173388    0.902275    0.341820       P1
    0.326612    0.402275    0.308180       P1
   -0.173388    0.097725    0.358180       P1
   -0.326612    0.597725    0.391820       P1
   -0.074892    0.266956    0.380283       P2
   -0.425108    0.766956    0.369717       P2
    0.074892    0.733044    0.319717       P2
    0.425108    0.233044    0.330283       P2
    0.258768    0.546009    0.360107       Ag
   -0.758768    0.046009    0.389893       Ag
   -0.258768    0.453991    0.339893       Ag
    0.758768    0.953991    0.310107       Ag
    0.173388    0.902275    0.441820       P1
    0.326612    0.402275    0.408180       P1
   -0.173388    0.097725    0.458180       P1
   -0.326612    0.597725    0.491820       P1
   -0.074892    0.266956    0.480283       P2
   -0.425108    0.766956    0.469717       P2
    0.074892    0.733044    0.419717       P2
    0.425108    0.233044    0.430283       P2
    0.258768    0.546009    0.460107       Ag
   -0.758768    0.046009    0.489893       Ag
   -0.258768    0.453991    0.439893       Ag
    0.758768    0.953991    0.410107       Ag
    0.173388    0.902275    0.541820       P1
    0.326612    0.402275    0.508180       P1
   -0.173388    0.097725    0.558180       P1
   -0.326612    0.597725    0.591820       P1
   -0.074892    0.266956    0.580283       P2
   -0.425108    0.766956    0.569717       P2
    0.074892    0.733044    0.519717       P2
    0.425108    0.233044    0.530283       P2
    0.258768    0.546009    0.560107       Ag
   -0.758768    0.046009    0.589893       Ag
   -0.258768    0.453991    0.539893       Ag
    0.758768    0.953991    0.510107       Ag
    0.173388    0.902275    0.641820       P1
    0.326612    0.402275    0.608180       P1
   -0.173388    0.097725    0.658180       P1
   -0.326612    0.597725    0.691820       P1
   -0.074892    0.266956    0.680283       P2
   -0.425108    0.766956    0.669717       P2
    0.074892    0.733044    0.619717       P2
    0.425108    0.233044    0.630283       P2
    0.258768    0.546009    0.660107       Ag
   -0.758768    0.046009    0.689893       Ag
   -0.258768    0.453991    0.639893       Ag
    0.758768    0.953991    0.610107       Ag
    0.173388    0.902275    0.741820       P1
    0.326612    0.402275    0.708180       P1
   -0.173388    0.097725    0.758180       P1
   -0.326612    0.597725    0.791820       P1
   -0.074892    0.266956    0.780283       P2
   -0.425108    0.766956    0.769717       P2
    0.074892    0.733044    0.719717       P2
    0.425108    0.233044    0.730283       P2
    0.258768    0.546009    0.760107       Ag
   -0.758768    0.046009    0.789893       Ag
   -0.258768    0.453991    0.739893       Ag
    0.758768    0.953991    0.710107       Ag
    0.173388    0.902275    0.841820       P1
    0.326612    0.402275    0.808180       P1
   -0.173388    0.097725    0.858180       P1
   -0.326612    0.597725    0.891820       P1
   -0.074892    0.266956    0.880283       P2
   -0.425108    0.766956    0.869717       P2
    0.074892    0.733044    0.819717       P2
    0.425108    0.233044    0.830283       P2
    0.258768    0.546009    0.860107       Ag
   -0.758768    0.046009    0.889893       Ag
   -0.258768    0.453991    0.839893       Ag
    0.758768    0.953991    0.810107       Ag
    0.173388    0.902275    0.941820       P1
    0.326612    0.402275    0.908180       P1
   -0.173388    0.097725    0.958180       P1
   -0.326612    0.597725    0.991820       P1
   -0.074892    0.266956    0.980283       P2
   -0.425108    0.766956    0.969717       P2
    0.074892    0.733044    0.919717       P2
    0.425108    0.233044    0.930283       P2
    0.258768    0.546009    0.960107       Ag
   -0.758768    0.046009    0.989893       Ag
   -0.258768    0.453991    0.939893       Ag
    0.758768    0.953991    0.910107       Ag
