POSCAR for slab defined by SURFACE card and Nslab and Vacuum_thickness_in_Angstrom in wt.in by WannierTools
1.0
    6.136528    0.000000    0.000000
    0.000000    5.014699    0.000000
   34.801535    0.000000   81.558918
P1    P2    Ag    
    40    40    40
Cartesian
    4.684867    4.524636    8.485664       P1
    7.713416    4.524636   15.583201       P1
   10.741965    4.524636   22.680739       P1
   13.770514    4.524636   29.778276       P1
   16.799064    4.524636   36.875814       P1
   19.827613    4.524636   43.973351       P1
   22.856162    4.524636   51.070888       P1
   25.884711    4.524636   58.168426       P1
   28.913260    4.524636   65.265963       P1
   31.941809    4.524636   72.363500       P1
    4.606349    2.017286    6.098094       P1
    7.634898    2.017286   13.195632       P1
   10.663447    2.017286   20.293169       P1
   13.691996    2.017286   27.390706       P1
   16.720545    2.017286   34.488244       P1
   19.749095    2.017286   41.585781       P1
   22.777644    2.017286   48.683319       P1
   25.806193    2.017286   55.780856       P1
   28.834742    2.017286   62.878393       P1
   31.863291    2.017286   69.975931       P1
    9.188887    0.490063    9.646863       P1
   12.217436    0.490063   16.744400       P1
   15.245986    0.490063   23.841938       P1
   18.274535    0.490063   30.939475       P1
   21.303084    0.490063   38.037013       P1
   24.331633    0.490063   45.134550       P1
   27.360182    0.490063   52.232087       P1
   30.388732    0.490063   59.329625       P1
   33.417281    0.490063   66.427162       P1
   36.445830    0.490063   73.524699       P1
    9.267405    2.997412   12.034433       P1
   12.295955    2.997412   19.131970       P1
   15.324504    2.997412   26.229507       P1
   18.353053    2.997412   33.327045       P1
   21.381602    2.997412   40.424582       P1
   24.410151    2.997412   47.522120       P1
   27.438701    2.997412   54.619657       P1
   30.467250    2.997412   61.717194       P1
   33.495799    2.997412   68.814732       P1
   36.524348    2.997412   75.912269       P1
   10.462698    1.338706   11.215608       P2
   13.491247    1.338706   18.313145       P2
   16.519796    1.338706   25.410683       P2
   19.548345    1.338706   32.508220       P2
   22.576894    1.338706   39.605757       P2
   25.605444    1.338706   46.703295       P2
   28.633993    1.338706   53.800832       P2
   31.662542    1.338706   60.898370       P2
   34.691091    1.338706   67.995907       P2
   37.719640    1.338706   75.093444       P2
    7.993595    3.846055   10.465688       P2
   11.022144    3.846055   17.563225       P2
   14.050694    3.846055   24.660763       P2
   17.079243    3.846055   31.758300       P2
   20.107792    3.846055   38.855837       P2
   23.136341    3.846055   45.953375       P2
   26.164890    3.846055   53.050912       P2
   29.193439    3.846055   60.148450       P2
   32.221989    3.846055   67.245987       P2
   35.250538    3.846055   74.343524       P2
    3.411056    3.675993    6.916919       P2
    6.439606    3.675993   14.014456       P2
    9.468155    3.675993   21.111994       P2
   12.496704    3.675993   28.209531       P2
   15.525253    3.675993   35.307069       P2
   18.553802    3.675993   42.404606       P2
   21.582352    3.675993   49.502143       P2
   24.610901    3.675993   56.599681       P2
   27.639450    3.675993   63.697218       P2
   30.667999    3.675993   70.794756       P2
    5.880159    1.168644    7.666839       P2
    8.908708    1.168644   14.764376       P2
   11.937257    1.168644   21.861914       P2
   14.965806    1.168644   28.959451       P2
   17.994356    1.168644   36.056989       P2
   21.022905    1.168644   43.154526       P2
   24.051454    1.168644   50.252063       P2
   27.080003    1.168644   57.349601       P2
   30.108552    1.168644   64.447138       P2
   33.137102    1.168644   71.544676       P2
    5.762649    2.738072    9.783624       Ag
    8.791198    2.738072   16.881161       Ag
   11.819747    2.738072   23.978699       Ag
   14.848297    2.738072   31.076236       Ag
   17.876846    2.738072   38.173773       Ag
   20.905395    2.738072   45.271311       Ag
   23.933944    2.738072   52.368848       Ag
   26.962493    2.738072   59.466386       Ag
   29.991042    2.738072   66.563923       Ag
   33.019592    2.738072   73.661460       Ag
    6.557116    0.230723   11.897672       Ag
    9.585665    0.230723   18.995209       Ag
   12.614214    0.230723   26.092747       Ag
   15.642763    0.230723   33.190284       Ag
   18.671312    0.230723   40.287821       Ag
   21.699862    0.230723   47.385359       Ag
   24.728411    0.230723   54.482896       Ag
   27.756960    0.230723   61.580434       Ag
   30.785509    0.230723   68.677971       Ag
   33.814058    0.230723   75.775508       Ag
    8.111105    2.276627    8.348903       Ag
   11.139654    2.276627   15.446441       Ag
   14.168203    2.276627   22.543978       Ag
   17.196753    2.276627   29.641515       Ag
   20.225302    2.276627   36.739053       Ag
   23.253851    2.276627   43.836590       Ag
   26.282400    2.276627   50.934127       Ag
   29.310949    2.276627   58.031665       Ag
   32.339499    2.276627   65.129202       Ag
   35.368048    2.276627   72.226740       Ag
    7.316638    4.783976    6.234855       Ag
   10.345188    4.783976   13.332392       Ag
   13.373737    4.783976   20.429930       Ag
   16.402286    4.783976   27.527467       Ag
   19.430835    4.783976   34.625005       Ag
   22.459384    4.783976   41.722542       Ag
   25.487934    4.783976   48.820079       Ag
   28.516483    4.783976   55.917617       Ag
   31.545032    4.783976   63.015154       Ag
   34.573581    4.783976   70.112692       Ag
