POSCAR for generated by WannierTools
1.0
    6.136528    0.000000    0.000000
    0.000000    5.014699    0.000000
   -3.107979    0.000000    7.097537
P1    P2    P3    P4    P5    P6    P7    P8    Ag1   Ag2   Ag3   Ag4   
     1     1     1     1     1     1     1     1     1     1     1     1
Direct
    0.591585    0.902275    0.418197       P1
    0.408415    0.402275    0.081803       P2
    0.408415    0.097725    0.581803       P3
    0.591585    0.597725    0.918197       P4
    0.727937    0.266956    0.802830       P5
    0.272063    0.766956    0.697170       P6
    0.272063    0.733044    0.197170       P7
    0.727937    0.233044    0.302830       P8
    0.859839    0.546009    0.601072      Ag1
    0.140161    0.046009    0.898928      Ag2
    0.140161    0.453991    0.398928      Ag3
    0.859839    0.953991    0.101072      Ag4
