Rotated POSCAR by SURFACE card in wt.in by WannierTools
1.0
    6.136528    0.000000    0.000000
   -3.107979    0.000000    7.097537
    0.000000   -5.014699    0.000000
P1    P2    P3    P4    P5    P6    P7    P8    Ag1   Ag2   Ag3   Ag4   
     1     1     1     1     1     1     1     1     1     1     1     1
Direct
    0.591585    0.418197    0.097725       P1
    0.408415    0.081803    0.597725       P2
    0.408415    0.581803    0.902275       P3
    0.591585    0.918197    0.402275       P4
    0.727937    0.802830    0.733044       P5
    0.272063    0.697170    0.233044       P6
    0.272063    0.197170    0.266956       P7
    0.727937    0.302830    0.766956       P8
    0.859839    0.601072    0.453991      Ag1
    0.140161    0.898928    0.953991      Ag2
    0.140161    0.398928    0.546009      Ag3
    0.859839    0.101072    0.046009      Ag4
