Rotated POSCAR by SURFACE card in wt.in by WannierTools
1.0
    6.136528    0.000000    0.000000
    0.000000    5.014699    0.000000
    3.028549    0.000000    7.097537
P1    P2    P3    P4    P5    P6    P7    P8    Ag1   Ag2   Ag3   Ag4   
     1     1     1     1     1     1     1     1     1     1     1     1
Direct
    0.091753    0.477463    0.221300       P1
    0.172836    0.212875    0.043288       P2
    0.908247    0.051714    0.307877       P3
    0.827164    0.316303    0.485889       P4
    0.960369    0.141267    0.424839       P5
    0.775043    0.405856    0.368927       P6
    0.039631    0.387910    0.104338       P7
    0.224957    0.123321    0.160251       P8
    0.136934    0.288936    0.318073      Ag1
    0.598477    0.024347    0.475692      Ag2
    0.863066    0.240242    0.211104      Ag3
    0.401523    0.504830    0.053485      Ag4
