POSCAR for generated by WannierTools
1.0
    6.136528    0.000000    0.000000
   -3.107979    0.000000    7.097537
    0.000000   -5.014699    0.000000
P1    P2    P3    P4    P5    P6    P7    P8    Ag1   Ag2   Ag3   Ag4   
     1     1     1     1     1     1     1     1     1     1     1     1
Direct
    0.591585    0.418197    0.093735       P1
    0.408415    0.081803    0.593735       P2
    0.408415    0.581803    0.898284       P3
    0.591585    0.918197    0.398284       P4
    0.727937    0.802830    0.729053       P5
    0.272063    0.697170    0.229053       P6
    0.272063    0.197170    0.262966       P7
    0.727937    0.302830    0.762966       P8
    0.859839    0.601072    0.450000      Ag1
    0.140161    0.898928    0.950000      Ag2
    0.140161    0.398928    0.542019      Ag3
    0.859839    0.101072    0.042019      Ag4
