POSCAR for slab defined by SURFACE card and Nslab and Vacuum_thickness_in_Angstrom in wt.in by WannierTools
1.0
    6.136529    0.000000    0.000000
    0.000000    5.014699    0.000000
   46.915735    0.000000  109.949075
P     Ag    
   112    56
Cartesian
    4.684867    4.524636    8.485664        P
    7.713416    4.524636   15.583202        P
   10.741966    4.524636   22.680740        P
   13.770515    4.524636   29.778278        P
   16.799065    4.524636   36.875816        P
   19.827614    4.524636   43.973354        P
   22.856163    4.524636   51.070892        P
   25.884713    4.524636   58.168430        P
   28.913262    4.524636   65.265967        P
   31.941812    4.524636   72.363505        P
   34.970361    4.524636   79.461043        P
   37.998910    4.524636   86.558581        P
   41.027460    4.524636   93.656119        P
   44.056009    4.524636  100.753657        P
    4.606349    2.017287    6.098094        P
    7.634898    2.017287   13.195632        P
   10.663448    2.017287   20.293170        P
   13.691997    2.017287   27.390708        P
   16.720546    2.017287   34.488246        P
   19.749096    2.017287   41.585784        P
   22.777645    2.017287   48.683322        P
   25.806195    2.017287   55.780860        P
   28.834744    2.017287   62.878398        P
   31.863293    2.017287   69.975935        P
   34.891843    2.017287   77.073473        P
   37.920392    2.017287   84.171011        P
   40.948942    2.017287   91.268549        P
   43.977491    2.017287   98.366087        P
    9.188888    0.490063    9.646863        P
   12.217437    0.490063   16.744401        P
   15.245987    0.490063   23.841939        P
   18.274536    0.490063   30.939477        P
   21.303085    0.490063   38.037015        P
   24.331635    0.490063   45.134553        P
   27.360184    0.490063   52.232091        P
   30.388734    0.490063   59.329629        P
   33.417283    0.490063   66.427167        P
   36.445832    0.490063   73.524704        P
   39.474382    0.490063   80.622242        P
   42.502931    0.490063   87.719780        P
   45.531481    0.490063   94.817318        P
   48.560030    0.490063  101.914856        P
    9.267406    2.997413   12.034433        P
   12.295955    2.997413   19.131971        P
   15.324505    2.997413   26.229509        P
   18.353054    2.997413   33.327047        P
   21.381604    2.997413   40.424585        P
   24.410153    2.997413   47.522123        P
   27.438702    2.997413   54.619661        P
   30.467252    2.997413   61.717198        P
   33.495801    2.997413   68.814736        P
   36.524351    2.997413   75.912274        P
   39.552900    2.997413   83.009812        P
   42.581449    2.997413   90.107350        P
   45.609999    2.997413   97.204888        P
   48.638548    2.997413  104.302426        P
   10.462698    1.338706   11.215608        P
   13.491248    1.338706   18.313146        P
   16.519797    1.338706   25.410684        P
   19.548346    1.338706   32.508222        P
   22.576896    1.338706   39.605760        P
   25.605445    1.338706   46.703298        P
   28.633995    1.338706   53.800836        P
   31.662544    1.338706   60.898374        P
   34.691093    1.338706   67.995911        P
   37.719643    1.338706   75.093449        P
   40.748192    1.338706   82.190987        P
   43.776742    1.338706   89.288525        P
   46.805291    1.338706   96.386063        P
   49.833840    1.338706  103.483601        P
    7.993596    3.846056   10.465688        P
   11.022145    3.846056   17.563226        P
   14.050694    3.846056   24.660764        P
   17.079244    3.846056   31.758302        P
   20.107793    3.846056   38.855840        P
   23.136343    3.846056   45.953378        P
   26.164892    3.846056   53.050916        P
   29.193441    3.846056   60.148454        P
   32.221991    3.846056   67.245991        P
   35.250540    3.846056   74.343529        P
   38.279090    3.846056   81.441067        P
   41.307639    3.846056   88.538605        P
   44.336188    3.846056   95.636143        P
   47.364738    3.846056  102.733681        P
    3.411057    3.675993    6.916919        P
    6.439606    3.675993   14.014457        P
    9.468155    3.675993   21.111995        P
   12.496705    3.675993   28.209533        P
   15.525254    3.675993   35.307071        P
   18.553804    3.675993   42.404609        P
   21.582353    3.675993   49.502147        P
   24.610902    3.675993   56.599685        P
   27.639452    3.675993   63.697222        P
   30.668001    3.675993   70.794760        P
   33.696551    3.675993   77.892298        P
   36.725100    3.675993   84.989836        P
   39.753649    3.675993   92.087374        P
   42.782199    3.675993   99.184912        P
    5.880159    1.168644    7.666839        P
    8.908709    1.168644   14.764377        P
   11.937258    1.168644   21.861915        P
   14.965807    1.168644   28.959453        P
   17.994357    1.168644   36.056991        P
   21.022906    1.168644   43.154529        P
   24.051456    1.168644   50.252067        P
   27.080005    1.168644   57.349605        P
   30.108554    1.168644   64.447143        P
   33.137104    1.168644   71.544680        P
   36.165653    1.168644   78.642218        P
   39.194203    1.168644   85.739756        P
   42.222752    1.168644   92.837294        P
   45.251301    1.168644   99.934832        P
    5.762649    2.738072    9.783624       Ag
    8.791199    2.738072   16.881162       Ag
   11.819748    2.738072   23.978700       Ag
   14.848297    2.738072   31.076238       Ag
   17.876847    2.738072   38.173776       Ag
   20.905396    2.738072   45.271314       Ag
   23.933946    2.738072   52.368852       Ag
   26.962495    2.738072   59.466389       Ag
   29.991044    2.738072   66.563927       Ag
   33.019594    2.738072   73.661465       Ag
   36.048143    2.738072   80.759003       Ag
   39.076693    2.738072   87.856541       Ag
   42.105242    2.738072   94.954079       Ag
   45.133792    2.738072  102.051617       Ag
    6.557116    0.230723   11.897672       Ag
    9.585665    0.230723   18.995210       Ag
   12.614215    0.230723   26.092748       Ag
   15.642764    0.230723   33.190286       Ag
   18.671314    0.230723   40.287824       Ag
   21.699863    0.230723   47.385362       Ag
   24.728412    0.230723   54.482900       Ag
   27.756962    0.230723   61.580438       Ag
   30.785511    0.230723   68.677976       Ag
   33.814061    0.230723   75.775513       Ag
   36.842610    0.230723   82.873051       Ag
   39.871159    0.230723   89.970589       Ag
   42.899709    0.230723   97.068127       Ag
   45.928258    0.230723  104.165665       Ag
    8.111105    2.276627    8.348903       Ag
   11.139655    2.276627   15.446441       Ag
   14.168204    2.276627   22.543979       Ag
   17.196754    2.276627   29.641517       Ag
   20.225303    2.276627   36.739055       Ag
   23.253853    2.276627   43.836593       Ag
   26.282402    2.276627   50.934131       Ag
   29.310951    2.276627   58.031669       Ag
   32.339501    2.276627   65.129207       Ag
   35.368050    2.276627   72.226745       Ag
   38.396600    2.276627   79.324282       Ag
   41.425149    2.276627   86.421820       Ag
   44.453698    2.276627   93.519358       Ag
   47.482248    2.276627  100.616896       Ag
    7.316639    4.783976    6.234855       Ag
   10.345188    4.783976   13.332393       Ag
   13.373738    4.783976   20.429931       Ag
   16.402287    4.783976   27.527469       Ag
   19.430836    4.783976   34.625007       Ag
   22.459386    4.783976   41.722545       Ag
   25.487935    4.783976   48.820083       Ag
   28.516485    4.783976   55.917620       Ag
   31.545034    4.783976   63.015158       Ag
   34.573583    4.783976   70.112696       Ag
   37.602133    4.783976   77.210234       Ag
   40.630682    4.783976   84.307772       Ag
   43.659232    4.783976   91.405310       Ag
   46.687781    4.783976   98.502848       Ag
