POSCAR for generated by WannierTools
1.0
    6.136529    0.000000    0.000000
    0.000000    5.014699    0.000000
   -3.107979    0.000000    7.097538
P     Ag    
     8     4
Direct
    0.591585    0.902275    0.418197        P
    0.408415    0.402275    0.081803        P
    0.408415    0.097725    0.581803        P
    0.591585    0.597725    0.918197        P
    0.727937    0.266956    0.802830        P
    0.272063    0.766956    0.697170        P
    0.272063    0.733044    0.197170        P
    0.727937    0.233044    0.302830        P
    0.859839    0.546009    0.601072       Ag
    0.140161    0.046009    0.898928       Ag
    0.140161    0.453991    0.398928       Ag
    0.859839    0.953991    0.101072       Ag
