POSCAR for generated by WannierTools
1.0
    6.136528    0.000000    0.000000
   -3.107979    0.000000    7.097537
    0.000000  -70.205785    0.000000
P1    P2    P3    P4    P5    P6    P7    P8    Ag1   Ag2   Ag3   Ag4   
    14    14    14    14    14    14    14    14    14    14    14    14
Direct
    0.591585    0.418197   -0.064448       P1
    0.408415    0.081803   -0.028734       P2
    0.408415    0.581803   -0.006980       P3
    0.591585    0.918197   -0.042695       P4
    0.727937    0.802830   -0.019068       P5
    0.272063    0.697170   -0.054783       P6
    0.272063    0.197170   -0.052360       P7
    0.727937    0.302830   -0.016646       P8
    0.859839    0.601072   -0.039001      Ag1
    0.140161    0.898928   -0.003286      Ag2
    0.140161    0.398928   -0.032428      Ag3
    0.859839    0.101072   -0.068142      Ag4
    0.591585    0.418197    0.006980       P1
    0.408415    0.081803    0.042695       P2
    0.408415    0.581803    0.064448       P3
    0.591585    0.918197    0.028734       P4
    0.727937    0.802830    0.052360       P5
    0.272063    0.697170    0.016646       P6
    0.272063    0.197170    0.019068       P7
    0.727937    0.302830    0.054783       P8
    0.859839    0.601072    0.032428      Ag1
    0.140161    0.898928    0.068142      Ag2
    0.140161    0.398928    0.039001      Ag3
    0.859839    0.101072    0.003286      Ag4
    0.591585    0.418197    0.078409       P1
    0.408415    0.081803    0.114123       P2
    0.408415    0.581803    0.135877       P3
    0.591585    0.918197    0.100162       P4
    0.727937    0.802830    0.123789       P5
    0.272063    0.697170    0.088075       P6
    0.272063    0.197170    0.090497       P7
    0.727937    0.302830    0.126211       P8
    0.859839    0.601072    0.103856      Ag1
    0.140161    0.898928    0.139571      Ag2
    0.140161    0.398928    0.110429      Ag3
    0.859839    0.101072    0.074715      Ag4
    0.591585    0.418197    0.149838       P1
    0.408415    0.081803    0.185552       P2
    0.408415    0.581803    0.207305       P3
    0.591585    0.918197    0.171591       P4
    0.727937    0.802830    0.195217       P5
    0.272063    0.697170    0.159503       P6
    0.272063    0.197170    0.161925       P7
    0.727937    0.302830    0.197640       P8
    0.859839    0.601072    0.175285      Ag1
    0.140161    0.898928    0.210999      Ag2
    0.140161    0.398928    0.181858      Ag3
    0.859839    0.101072    0.146144      Ag4
    0.591585    0.418197    0.221266       P1
    0.408415    0.081803    0.256980       P2
    0.408415    0.581803    0.278734       P3
    0.591585    0.918197    0.243020       P4
    0.727937    0.802830    0.266646       P5
    0.272063    0.697170    0.230932       P6
    0.272063    0.197170    0.233354       P7
    0.727937    0.302830    0.269068       P8
    0.859839    0.601072    0.246714      Ag1
    0.140161    0.898928    0.282428      Ag2
    0.140161    0.398928    0.253286      Ag3
    0.859839    0.101072    0.217572      Ag4
    0.591585    0.418197    0.292695       P1
    0.408415    0.081803    0.328409       P2
    0.408415    0.581803    0.350162       P3
    0.591585    0.918197    0.314448       P4
    0.727937    0.802830    0.338075       P5
    0.272063    0.697170    0.302360       P6
    0.272063    0.197170    0.304783       P7
    0.727937    0.302830    0.340497       P8
    0.859839    0.601072    0.318142      Ag1
    0.140161    0.898928    0.353856      Ag2
    0.140161    0.398928    0.324715      Ag3
    0.859839    0.101072    0.289001      Ag4
    0.591585    0.418197    0.364123       P1
    0.408415    0.081803    0.399838       P2
    0.408415    0.581803    0.421591       P3
    0.591585    0.918197    0.385877       P4
    0.727937    0.802830    0.409503       P5
    0.272063    0.697170    0.373789       P6
    0.272063    0.197170    0.376211       P7
    0.727937    0.302830    0.411925       P8
    0.859839    0.601072    0.389571      Ag1
    0.140161    0.898928    0.425285      Ag2
    0.140161    0.398928    0.396144      Ag3
    0.859839    0.101072    0.360429      Ag4
    0.591585    0.418197    0.435552       P1
    0.408415    0.081803    0.471266       P2
    0.408415    0.581803    0.493020       P3
    0.591585    0.918197    0.457305       P4
    0.727937    0.802830    0.480932       P5
    0.272063    0.697170    0.445217       P6
    0.272063    0.197170    0.447640       P7
    0.727937    0.302830    0.483354       P8
    0.859839    0.601072    0.460999      Ag1
    0.140161    0.898928    0.496714      Ag2
    0.140161    0.398928    0.467572      Ag3
    0.859839    0.101072    0.431858      Ag4
    0.591585    0.418197    0.506980       P1
    0.408415    0.081803    0.542695       P2
    0.408415    0.581803    0.564448       P3
    0.591585    0.918197    0.528734       P4
    0.727937    0.802830    0.552360       P5
    0.272063    0.697170    0.516646       P6
    0.272063    0.197170    0.519068       P7
    0.727937    0.302830    0.554783       P8
    0.859839    0.601072    0.532428      Ag1
    0.140161    0.898928    0.568142      Ag2
    0.140161    0.398928    0.539001      Ag3
    0.859839    0.101072    0.503286      Ag4
    0.591585    0.418197    0.578409       P1
    0.408415    0.081803    0.614123       P2
    0.408415    0.581803    0.635877       P3
    0.591585    0.918197    0.600162       P4
    0.727937    0.802830    0.623789       P5
    0.272063    0.697170    0.588075       P6
    0.272063    0.197170    0.590497       P7
    0.727937    0.302830    0.626211       P8
    0.859839    0.601072    0.603856      Ag1
    0.140161    0.898928    0.639571      Ag2
    0.140161    0.398928    0.610429      Ag3
    0.859839    0.101072    0.574715      Ag4
    0.591585    0.418197    0.649838       P1
    0.408415    0.081803    0.685552       P2
    0.408415    0.581803    0.707305       P3
    0.591585    0.918197    0.671591       P4
    0.727937    0.802830    0.695217       P5
    0.272063    0.697170    0.659503       P6
    0.272063    0.197170    0.661925       P7
    0.727937    0.302830    0.697640       P8
    0.859839    0.601072    0.675285      Ag1
    0.140161    0.898928    0.710999      Ag2
    0.140161    0.398928    0.681858      Ag3
    0.859839    0.101072    0.646144      Ag4
    0.591585    0.418197    0.721266       P1
    0.408415    0.081803    0.756980       P2
    0.408415    0.581803    0.778734       P3
    0.591585    0.918197    0.743020       P4
    0.727937    0.802830    0.766646       P5
    0.272063    0.697170    0.730932       P6
    0.272063    0.197170    0.733354       P7
    0.727937    0.302830    0.769068       P8
    0.859839    0.601072    0.746714      Ag1
    0.140161    0.898928    0.782428      Ag2
    0.140161    0.398928    0.753286      Ag3
    0.859839    0.101072    0.717572      Ag4
    0.591585    0.418197    0.792695       P1
    0.408415    0.081803    0.828409       P2
    0.408415    0.581803    0.850162       P3
    0.591585    0.918197    0.814448       P4
    0.727937    0.802830    0.838075       P5
    0.272063    0.697170    0.802360       P6
    0.272063    0.197170    0.804783       P7
    0.727937    0.302830    0.840497       P8
    0.859839    0.601072    0.818142      Ag1
    0.140161    0.898928    0.853856      Ag2
    0.140161    0.398928    0.824715      Ag3
    0.859839    0.101072    0.789001      Ag4
    0.591585    0.418197    0.864123       P1
    0.408415    0.081803    0.899838       P2
    0.408415    0.581803    0.921591       P3
    0.591585    0.918197    0.885877       P4
    0.727937    0.802830    0.909503       P5
    0.272063    0.697170    0.873789       P6
    0.272063    0.197170    0.876211       P7
    0.727937    0.302830    0.911925       P8
    0.859839    0.601072    0.889571      Ag1
    0.140161    0.898928    0.925285      Ag2
    0.140161    0.398928    0.896144      Ag3
    0.859839    0.101072    0.860429      Ag4
